/** dados do cenario dos slides dados em aula **/
data;

/* fixa numero de fazendas e usinas */

param f := 3;

param u := 3;

/* producao das fazendas */
param : producaoFazenda := 
 1 275 
 2 400 
 3 300;

/* processamento das usinas */
param : capacidadeUsina := 
 1 200 
 2 600
 3 225;

/* Estradas e distancias */

param : ESTRADAS : distancia := 
 1 1 21
 1 2 50
 1 3 40
 2 1 35
 2 2 30
 2 3 22
 3 1 55
 3 2 20
 3 3 25;

end;
 